Version identifier: 20.1.0.0 | 2020-11-10 | 9bedb6d68
CPXPARAM_Threads                                 1
CPXPARAM_TimeLimit                               100
Generic callback                                 0xfe
Tried aggregator 2 times.
MIP Presolve eliminated 4 rows and 27 columns.
MIP Presolve modified 23 coefficients.
Aggregator did 1 substitutions.
Reduced MIP has 797 rows, 13129 columns, and 38566 nonzeros.
Reduced MIP has 13128 binaries, 0 generals, 0 SOSs, and 0 indicators.
Presolve time = 0.02 sec. (20.31 ticks)
Tried aggregator 1 time.
Reduced MIP has 797 rows, 13129 columns, and 38566 nonzeros.
Reduced MIP has 13128 binaries, 0 generals, 0 SOSs, and 0 indicators.
Presolve time = 0.01 sec. (11.54 ticks)
Probing time = 0.01 sec. (4.88 ticks)
Clique table members: 1465.
MIP emphasis: balance optimality and feasibility.
MIP search method: dynamic search.
Parallel mode: none, using 1 thread.
Root relaxation solution time = 0.00 sec. (6.18 ticks)

        Nodes                                         Cuts/
   Node  Left     Objective  IInf  Best Integer    Best Bound    ItCnt     Gap

      0     0    29401.2065    42                      0.0000        5         
*     0+    0                        40704.4800    29401.2065            27.77%
      0     0    32952.6088    46    40704.4800       Cuts: 2       47   19.04%
      0     0    32952.6088    46    40704.4800       Cuts: 3       68   19.04%
      0     0    33093.1600    23    40704.4800    MIRcuts: 1       69   18.70%
*     0+    0                        39911.2000    33093.1600            17.08%
      0     2    33093.1600    83    39911.2000    33093.1600       69   17.08%
Elapsed time = 4.84 sec. (1989.80 ticks, tree = 0.01 MB, solutions = 2)
      4     6    38993.3689    87    39911.2000    33093.1600      108   17.08%
     10    12    38954.4800     0    39911.2000    33093.1600      233   17.08%
     11    12    39148.9244    27    39911.2000    33093.1600      233   17.08%
     12    13    39004.4800    61    39911.2000    33093.1600      233   17.08%
     20    13    33093.1600    56    39911.2000    33093.1600      247   17.08%
     29    22    33287.6044    31    39911.2000    33093.1600      458   17.08%
     40    33    37291.6320    15    39911.2000    33093.1600      571   17.08%
*    46    36      integral     0    39224.0000    33093.1600      612   15.63%
     48    36        cutoff          39224.0000    33093.1600      615   15.63%
     50    36    38419.5400    12    39224.0000    33093.1600      620   15.63%
     81    61    39148.9244    37    39224.0000    33093.1600      885   15.63%
Elapsed time = 13.94 sec. (8830.16 ticks, tree = 0.69 MB, solutions = 3)
    120    96    33132.0489   106    39224.0000    33093.1600     1489   15.63%
    165   141    33287.6044    50    39224.0000    33093.1600     2649   15.63%
    203   177    37993.5400    14    39224.0000    33093.1600     3051   15.63%
    228   195    33132.0489    95    39224.0000    33093.1600     3184   15.63%
    281   248    34072.4194    95    39224.0000    33093.1600     4144   15.63%
    326   293    38993.3689    93    39224.0000    33093.1600     4915   15.63%
    372   335    38993.3689    83    39224.0000    33093.1600     5829   15.63%
    398   355        cutoff          39224.0000    33093.1600     6334   15.63%
    400   357    33093.1600    80    39224.0000    33093.1600     6371   15.63%
    449   406    34111.5400     6    39224.0000    33093.1600     6795   15.63%
Elapsed time = 29.90 sec. (25391.36 ticks, tree = 4.93 MB, solutions = 3)
    521   478    37268.4267    27    39224.0000    33093.1600     7240   15.63%
    527   484    33132.0489    95    39224.0000    33093.1600     7330   15.63%

Performing restart 1

Repeating presolve.
Tried aggregator 2 times.
MIP Presolve eliminated 6 rows and 1578 columns.
MIP Presolve modified 11509 coefficients.
Aggregator did 7 substitutions.
Reduced MIP has 783 rows, 11544 columns, and 23087 nonzeros.
Reduced MIP has 11543 binaries, 0 generals, 0 SOSs, and 0 indicators.
Presolve time = 0.02 sec. (18.49 ticks)
Tried aggregator 1 time.
Reduced MIP has 783 rows, 11544 columns, and 23087 nonzeros.
Reduced MIP has 11543 binaries, 0 generals, 0 SOSs, and 0 indicators.
Presolve time = 0.01 sec. (10.10 ticks)
Represolve time = 1.64 sec. (377.88 ticks)
    528     2    33093.1600    22    39224.0000    33093.1600     7776   15.63%
    535     9    33132.9327    84    39224.0000    33093.1600     7873   15.63%
    554    22    38999.3518    72    39224.0000    33093.1600     7921   15.63%
    558    23    38999.3518    72    39224.0000    33093.1600     7993   15.63%
    562    24    38994.2527    72    39224.0000    33093.1600     8000   15.63%
    573    25    38994.2527    80    39224.0000    33093.1600     8067   15.63%
    591    30    39089.0954    31    39224.0000    33093.1600     8153   15.63%
    598    34    33133.8577    77    39224.0000    33093.1600     8234   15.63%
Elapsed time = 53.15 sec. (42447.39 ticks, tree = 0.35 MB, solutions = 3)
    615    51    33248.8015    41    39224.0000    33093.1600     8304   15.63%
    628    64    33248.8015    47    39224.0000    33093.1600     8320   15.63%
    648    84    33248.8015    45    39224.0000    33093.1600     8341   15.63%
    668   104    33248.8015    52    39224.0000    33093.1600     8362   15.63%
    688   124    33261.6596   178    39224.0000    33093.1600     8382   15.63%
    700   136    33301.9422   148    39224.0000    33093.1600     8395   15.63%
    721   151    34843.1600    30    39224.0000    33093.1600     8494   15.63%
    742   158        cutoff          39224.0000    33093.1600     8564   15.63%
    757   159    34843.1600    26    39224.0000    33093.1600     8614   15.63%
    762   159    37667.2289   120    39224.0000    33093.1600     8670   15.63%
Elapsed time = 69.26 sec. (60654.32 ticks, tree = 1.87 MB, solutions = 3)
    773   161    39020.7822    34    39224.0000    33093.1600     8762   15.63%
    788   168        cutoff          39224.0000    33093.1600     8890   15.63%
    794   170    36273.2520    15    39224.0000    33093.1600     8899   15.63%
    795   170    38298.2000    26    39224.0000    33093.1600     8903   15.63%
    800   171    38994.2527    82    39224.0000    33133.8577     8941   15.53%
    818   181    34843.1600    20    39224.0000    33133.8577     9072   15.53%
    828   181        cutoff          39224.0000    33133.8577     9098   15.53%
    840   185        cutoff          39224.0000    33133.8577     9138   15.53%
    863   201    38332.9175    21    39224.0000    33133.8577     9185   15.53%
    888   221    34843.1600    17    39224.0000    33134.8267     9266   15.52%
Elapsed time = 84.90 sec. (77600.51 ticks, tree = 2.70 MB, solutions = 3)
    907   236    35127.7066    14    39224.0000    33134.8267     9311   15.52%
    909   238    36273.2520    15    39224.0000    33134.8267     9314   15.52%
    910   239    38290.4850    26    39224.0000    33134.8267     9318   15.52%
    928   253    35792.0308    19    39224.0000    33134.8267     9408   15.52%
    938   260    34843.1600    15    39224.0000    33138.0318     9508   15.52%
    967   287    35224.6730    16    39224.0000    33138.0318     9561   15.52%
    971   291    38290.4850    26    39224.0000    33138.0318     9569   15.52%
    975   295    38290.4850    26    39224.0000    33138.0318     9585   15.52%
    995   311    38581.8200     8    39224.0000    33138.0318     9635   15.52%
   1005   312    34843.1600    19    39224.0000    33138.0318     9686   15.52%
Elapsed time = 96.03 sec. (91335.33 ticks, tree = 4.00 MB, solutions = 3)
   1015   322    34843.1600    11    39224.0000    33138.0318     9708   15.52%
Starting limited solution polishing.
   1031   338    34843.1600    13    39224.0000    33138.0318     9752   15.52%
Advanced basis not built.

Mixed integer rounding cuts applied:  2
Gomory fractional cuts applied:  1
User cuts applied:  499

Root node processing (before b&c):
  Real time             =    4.85 sec. (2005.75 ticks)
Sequential b&c:
  Real time             =   94.93 sec. (93385.41 ticks)
                          ------------
Total (root+branch&cut) =   99.78 sec. (95391.16 ticks)
SOLUTION ADMISSIBLE TROUVEE 40704.479999999996 40704.479999999996 296.0 396.0
SOLUTION ADMISSIBLE TROUVEE 39911.2 39911.2 316.0 396.0
SOLUTION ADMISSIBLE TROUVEE 39224.00000000001 39224.0 322.0 396.0
